
  22    4
  10   10   10   10

   0   0   0   0   0   5 2 3 4 5 7 
   6  10  10  10  10   6 19 14 10 9 8 6 
   4  10  10  10  10   6 21 20 14 12 11 10 
   5  10  10  10  10   5 19 18 15 13 11 
   8  10  10  10  10   5 21 19 18 17 11 
   7  10  10  10  10   4 20 18 12 11 
   3  10  10  10  10   3 19 16 12 
   1  10  10  10  10   2 20 16 
   2  10  10  10  10   2 18 16 
   5  10  10  10  10   1 13 
   9  10  10  10  10   1 16 
   4  10  10  10  10   1 17 
   5  10  10  10  10   1 16 
   3  10  10  10  10   1 18 
   5  10  10  10  10   1 17 
   7  10  10  10  10   1 22
   9  10  10  10  10   1 22
   1  10  10  10  10   1 22
   4  10  10  10  10   1 22
  10  10  10  10  10   1 22
   2  10  10  10  10   1 22
   0   0   0   0   0   0 
